NAME : 07.txt
TYPE : TSP
DIMENSION : 51
EDGE_WEIGHT_TYPE : EUC_2D
NODE_COORD_SECTION
1 0 0
2 -1 0
3 -4 -2
4 -6 -6
5 -7 -9
6 -10 -11
7 -11 -12
8 -12 -15
9 -15 -20
10 -17 -23
11 -17 -28
12 -15 -32
13 -11 -36
14 -5 -42
15 2 -46
16 8 -50
17 16 -52
18 22 -54
19 26 -55
20 31 -57
21 35 -61
22 37 -67
23 38 -71
24 40 -73
25 40 -73
26 38 -75
27 35 -75
28 31 -77
29 29 -81
30 27 -85
31 23 -87
32 19 -88
33 14 -87
34 8 -85
35 1 -82
36 -4 -78
37 -11 -75
38 -20 -73
39 -29 -70
40 -36 -68
41 -45 -66
42 -54 -63
43 -61 -59
44 -66 -55
45 -73 -52
46 -78 -49
47 -81 -45
48 -83 -42
49 -86 -41
50 -91 -38
51 -94 -35
EOF
